1 **********************************************************************
  *    New Project                                                     *
  *    ++++++++++++++++++++++++++++++++++++++++++++++++++++++++++++    *
  *                                                                    *
  **********************************************************************




                              ITERATION nø 2
                              ====================

 Le cout est calculé par un modèle simplifié 

 La fonction objectif est le COUT
 --------------------------------
Panel#:   Cost =    Fmat   +    Fsou +   FMdO (Euro,$ or..) - Gross Weight and Corrosion weight(N)
--------------------------------------------------------------------------------------------------
    1  0.8980E+04  0.1358E+04  0.4076E+03  0.7215E+04  0.3499E+05  0.0000E+00
    2  0.1796E+05  0.2715E+04  0.8152E+03  0.1443E+05  0.6997E+05  0.0000E+00
    3  0.1277E+05  0.2007E+04  0.5722E+03  0.1019E+05  0.5181E+05  0.0000E+00
    4  0.4516E+04  0.7096E+03  0.2023E+03  0.3604E+04  0.1832E+05  0.0000E+00
    5  0.1560E+05  0.1310E+04  0.6413E+03  0.1365E+05  0.3404E+05  0.0000E+00
    6  0.7802E+04  0.6551E+03  0.3207E+03  0.6826E+04  0.1702E+05  0.0000E+00
    7  0.4090E+04  0.3645E+03  0.1913E+03  0.3534E+04  0.9351E+04  0.0000E+00
    8  0.1274E+05  0.1658E+04  0.5533E+03  0.1053E+05  0.4198E+05  0.0000E+00
    9  0.2578E+05  0.5807E+04  0.1185E+04  0.1879E+05  0.1492E+06  0.0000E+00
   10  0.1031E+05  0.2323E+04  0.4738E+03  0.7517E+04  0.5969E+05  0.0000E+00
   11  0.2262E+05  0.1319E+04  0.9508E+03  0.2035E+05  0.3390E+05  0.0000E+00
   12  0.7542E+04  0.4397E+03  0.3169E+03  0.6785E+04  0.1130E+05  0.0000E+00
   13  0.2260E+05  0.1292E+04  0.9508E+03  0.2035E+05  0.3328E+05  0.0000E+00
   14  0.7533E+04  0.4306E+03  0.3169E+03  0.6785E+04  0.1109E+05  0.0000E+00
   15  0.2036E+05  0.1877E+04  0.9364E+03  0.1755E+05  0.4856E+05  0.0000E+00
   16  0.8144E+04  0.7507E+03  0.3746E+03  0.7019E+04  0.1942E+05  0.0000E+00
   17  0.1268E+05  0.1223E+04  0.6411E+03  0.1082E+05  0.3164E+05  0.0000E+00
   18  0.2194E+03  0.2194E+03  0.0000E+00  0.0000E+00  0.5016E+04  0.0000E+00
   19  0.1097E+03  0.1097E+03  0.0000E+00  0.0000E+00  0.2508E+04  0.0000E+00
   20  0.1645E+03  0.1645E+03  0.0000E+00  0.0000E+00  0.3762E+04  0.0000E+00
 Total Weight: Complete structure (girders and
 secondary members excluded)
 -------------------------------------------------
    Weight (net   thickness)       =    686843.296674532000907 N
    Weight (corrosion thickness)   =    0.000000000000000E+000 N
    Weight (Gross thickness)       =    686843.296674532000907 N
 
 *** TOTAL COST  (1+2+3)        =    222542.920323090656893 Euro,$
       !!! Using the simplified LBR5 model !!! 
  This result will differ using a detailled database
 

 LE POIDS TOTAL DE LA STRUCTURE EST =  0.6868433E+06 N.
Ce poids reprend la structure principale, secondaire,les traverses et la corrosion.
Avant itération d'optimisation.
 (!!1/2 structure si symétrique et structure déjaugéesi IPA= 1)



******************************
 *** CAS DE CHARGE Nø 1 ***
******************************

 Epaisseur minimale de bordé: Plastification et voilement
--------------------------------------------------------------
      SR1 = Ratio of Applied stress/Yield Stress (?<? 1.0)
      SR2 = Global Interaction Ratio: Applied Stress/Critical Stress (?<? 1.0)

      For Yielding (Global stresses(Sx,Sy) are combined with the stress induced by the stiff bending)
      For Buckling (Global stresses(Sx,Sy) are considered alone)

Panel <-- Panel Dimensions -->  Minimum Thickness <- Collapse Scenario & applied stress --->  YIELDING   BUCKLING  Elast.Crit.Stress
      L(long) B(trans) d(thick)  d(min)  d/d(min)   Mode  Section   Sx    Sy     Tau    Plat  (S/So <1) (S/Scr<1) Sx(cr) Sy(cr) T(cr)
         (m)     (m)    (mm)      (mm)   (> 1 ??)           Y/Yo   N/mm2  N/mm2  N/mm2  (m)   Von-Mises Interact  N/mm2  N/mm2  N/mm2
                                                                                                SR1     Form(SR2)

  1    2.000   0.500    16.02     7.51    2.13   Buckling   0.00   -24.8  -10.8    0.0   2.94  0.418      0.157   260.2   73.4  364.3
  2    2.000   0.500    16.02     7.74    2.07   Buckling   0.50   -24.9  -11.8    0.0   2.94  0.421      0.172   260.2   73.4  364.3
  3    2.000   0.500    16.91     6.82    2.48   Yielding   0.00   -29.8   -2.4    0.0   2.95  0.400      0.031   289.8   81.8  405.7
  4    2.000   0.500    16.91     5.39    3.13   Yielding   0.00   -16.1    0.9    0.0   2.00  0.248      0.051   289.8   81.8  405.7
  5    2.000   0.500     7.96     7.55    1.05   Buckling   0.00   -11.5  -13.9    0.0   0.00  0.000      0.883    64.2   18.1   89.9
  6    2.000   0.500     7.96     5.89    1.35   Buckling   0.00     0.9   -7.2    0.0   0.00  0.000      0.548    64.2   18.1   89.9
  7    2.000   0.500     8.19     5.88    1.39   Buckling   1.00     4.1   -7.2    0.0   0.03  0.132      0.516    67.9   19.2   95.1
  8    2.000   0.500    11.79     4.99    2.36   Buckling   0.00     4.7   -5.2    0.0   0.00  0.000      0.180   140.8   39.7  197.1
  9    2.000   0.500    27.90     2.62   10.65   Yielding   0.50    13.6   -0.5    0.0   0.45  0.175      0.003   789.2  222.7 1104.8
 10    2.000   0.500    27.90     2.54   10.99   Yielding   1.00    13.6    0.1    0.0   0.45  0.171      0.000   789.2  222.7 1104.8
 11    2.000   0.500     5.00     3.91    1.28   Buckling   0.50    -5.2   -3.3    0.0   0.52  0.351      0.539    25.3    7.2   35.5
 12    2.000   0.500     5.00     2.87    1.74   Yielding   0.00    12.1   14.5    0.0   0.52  0.433      0.000    25.3    7.2   35.5
 13    2.000   0.500     5.00     4.50    1.11   Buckling   0.50     1.3   -4.2    0.0   0.37  0.313      0.808    25.3    7.2   35.5
 14    2.000   0.500     5.00     2.31    2.16   Yielding   0.00    10.8    7.3    0.0   0.37  0.280      0.000    25.3    7.2   35.5
 15    2.000   0.500     9.05     3.71    2.44   Buckling   0.33     5.5   -2.9    0.0   0.38  0.168      0.168    82.9   23.4  116.1
 16    2.000   0.500     9.05     2.31    3.91   Yielding   0.00    10.7    4.0    0.0   0.38  0.143      0.000    82.9   23.4  116.1
 17    2.000   0.500    10.16     7.74    1.31   Buckling   0.00   -25.6  -11.6    0.0   0.00  0.000      0.480   104.6   29.5  146.4

 Resist Ultime panneau (PAIK)
----------------------------------------
NEL,  Sig Ult (N/mm2) > ? > Contrainte moyenne axiale en compression (Nx)
  1   70.80089                    24.03861
  2   70.80089                    23.98266
  3   71.18839                    21.72607
  4   71.18839                    10.86774
  5   37.52174                    11.07786
  6   37.52174                     0.00000
  7   43.26925                     0.00000
  8   76.26211                     0.00000
  9   90.23256                     0.00000
 10   90.23256                     0.00000
 11   30.55666                     4.82136
 12   30.55666                     0.00000
 13   30.29341                     0.00000
 14   30.29341                     0.00000
 15   44.12365                     0.00000
 16   44.12365                     0.00000
 17   52.50498                    24.84538
 18    0.00000                     0.00000
 19    0.00000                     0.00000
 20    0.00000                     0.00000

RECAPITULATIFS DE VALEURS EXTREMES CALCULEES (Deplac. et Contraintes de Comparaison
----------------------------------------------------------------------
(PAR ORDRE DECROISSANT ; unités = m et N/m2)
 Valeurs         Panneaux              Positions (X,Y)

 Les valeurs extrêmes de V sont:
 0.1268E-01        17                       ( 5, 1)
 0.1241E-01        18                       ( 5, 1)
 0.9801E-02        19                       ( 5, 1)
 0.8982E-02        20                       ( 5, 1)
 0.6811E-02         4                       ( 5,20)
 0.6804E-02         5                       ( 5, 1)
 0.6386E-02         6                       ( 5, 1)
 0.6209E-02         3                       ( 5,31)
 0.4475E-02         8                       ( 5, 1)
 0.4192E-03         9                       ( 5, 1)
 0.2462E-03         7                       ( 5,10)
 0.2035E-03        15                       ( 5, 1)
 0.1114E-03        10                       ( 4, 1)
 0.7420E-04        13                       ( 2, 7)
 0.7276E-04         2                       ( 5, 8)
 0.2637E-04         1                       ( 5,31)
 0.1157E-04        16                       ( 3,12)
 0.6970E-05        14                       ( 2,20)
-0.2785E-14        16                       ( 5,31)
-0.1051E-04        15                       ( 5,27)
-0.3800E-04        14                       ( 5, 1)
-0.4805E-04         1                       ( 2,19)
-0.1149E-03        13                       ( 5,25)
-0.1258E-03         2                       ( 2,27)
-0.2173E-03        12                       ( 5, 1)
-0.6047E-03        11                       ( 5, 1)
 Les valeurs extrêmes de U sont:
 0.3839E-02         3                       ( 1, 1)
 0.3839E-02         2                       ( 1,31)
 0.3812E-02         1                       ( 1,31)
 0.3812E-02        17                       ( 1, 1)
 0.1834E-02         4                       ( 1, 1)
 0.1189E-02        11                       ( 1, 3)
 0.1175E-02         5                       ( 1, 1)
 0.3889E-03        12                       ( 1,31)
-0.1000E+31         0                       ( 0, 0)
-0.1000E+31         0                       ( 0, 0)
-0.1000E+31         0                       ( 0, 0)
-0.4213E-03        14                       ( 1, 1)
-0.4906E-03         5                       ( 1,31)
-0.4906E-03        13                       ( 1, 1)
-0.1081E-02        16                       ( 1, 1)
-0.1191E-02        15                       ( 1, 1)
-0.1406E-02         6                       ( 1,31)
-0.1406E-02         7                       ( 1, 1)
-0.2264E-02         8                       ( 1,31)
-0.2375E-02        10                       ( 1, 1)
-0.2375E-02         9                       ( 1,31)
-0.1000E+31         0                       ( 1, 0)
-0.1000E+31         0                       ( 1, 0)
-0.1000E+31         0                       ( 1, 0)
 Les valeurs extrêmes de W sont:
 0.1414E-01        12                       ( 5,31)
 0.1241E-01        11                       ( 5,31)
 0.1014E-01        14                       ( 5,11)
 0.9801E-02        13                       ( 5,31)
 0.9772E-02        16                       ( 5,31)
 0.8982E-02        15                       ( 5,31)
 0.8748E-02        10                       ( 5, 9)
 0.8460E-02         9                       ( 5,31)
 0.6290E-02         7                       ( 5, 1)
 0.1988E-02         4                       ( 5, 1)
 0.1624E-02        18                       ( 5, 9)
 0.6047E-03         5                       ( 5, 1)
 0.3372E-03        19                       ( 2, 9)
 0.3079E-03        20                       ( 5, 7)
 0.2463E-03         6                       ( 5,18)
 0.2173E-03        17                       ( 5,31)
-0.2161E-03        19                       ( 5,25)
-0.2383E-03         6                       ( 5,31)
-0.3061E-03        18                       ( 2,27)
-0.4791E-03        20                       ( 4,25)
-0.6165E-03         5                       ( 5,13)
-0.8361E-03         9                       ( 2,15)
-0.8871E-03         8                       ( 5,12)
-0.1201E-02        17                       ( 2,20)
-0.4053E-02        13                       ( 2,16)
-0.5378E-02        11                       ( 2,16)
-0.6101E-02         3                       ( 5, 1)
-0.1330E-01         2                       ( 5,12)
-0.1437E-01         1                       ( 5, 1)
 
 Les valeurs extrêmes de Sx BORDAGE (z=0) sont:
 0.1427E+08         8                       ( 5,31)
 0.1417E+08         9                       ( 5, 1)
 0.1375E+08        10                       ( 5, 1)
 0.1070E+08         7                       ( 5, 1)
 0.9658E+07         6                       ( 5,31)
 0.7903E+07        15                       ( 5,31)
 0.7469E+07        16                       ( 5, 1)
 0.7141E+07        13                       ( 5, 1)
 0.5223E+07        11                       ( 4,31)
 0.5114E+07        14                       ( 5, 1)
 0.4358E+07        12                       ( 4, 1)
 0.2046E+07         5                       ( 5,31)
-0.3685E+07        12                       ( 2, 2)
-0.7710E+07        11                       ( 2, 2)
-0.1081E+08         4                       ( 5, 5)
-0.1154E+08         5                       ( 5, 5)
-0.2191E+08         3                       ( 5, 5)
-0.2485E+08         1                       ( 5, 5)
-0.2485E+08         2                       ( 5, 5)
-0.2562E+08        17                       ( 5, 5)
 Les valeurs extrêmes de Sy BORDAGE (z=0) sont:
 0.1768E+08        11                       ( 2, 1)
 0.1445E+08        12                       ( 5, 1)
 0.1232E+08        13                       ( 2, 1)
 0.7275E+07        14                       ( 5, 1)
 0.7207E+07         7                       ( 5, 1)
 0.5336E+07        15                       ( 5,31)
 0.4050E+07         6                       ( 5,31)
 0.4021E+07        16                       ( 5, 1)
 0.2087E+07         9                       ( 2,31)
 0.1940E+07        10                       ( 2, 1)
 0.1539E+07         8                       ( 3,31)
 0.1406E+07         1                       ( 2,31)
 0.1312E+07         2                       ( 2, 1)
 0.9813E+06         4                       ( 4, 1)
 0.7435E+06         3                       ( 4,31)
-0.2128E+06        10                       ( 4, 4)
-0.5926E+06        14                       ( 2, 2)
-0.8052E+06         9                       ( 3, 3)
-0.2868E+07        15                       ( 5, 5)
-0.5189E+07         8                       ( 5, 5)
-0.5315E+07        13                       ( 2, 2)
-0.5331E+07         4                       ( 5, 5)
-0.5973E+07         3                       ( 2, 2)
-0.6066E+07        11                       ( 2, 2)
-0.7193E+07         7                       ( 5, 5)
-0.7221E+07         6                       ( 5, 5)
-0.1134E+08         1                       ( 2, 2)
-0.1268E+08        17                       ( 2, 2)
-0.1317E+08         2                       ( 2, 2)
-0.1393E+08         5                       ( 5, 5)
 Les valeurs extrêmes de Txy BORDAGE (z=0) sont:
 0.1393E+08        17                       ( 1,15)
 0.1064E+08         5                       ( 1, 2)
 0.8288E+07         6                       ( 1, 7)
 0.7423E+07         7                       ( 1, 1)
 0.6710E+07         3                       ( 1,22)
 0.5908E+07         4                       ( 1, 1)
 0.5514E+07        12                       ( 1, 1)
 0.3594E+07         2                       ( 1,31)
 0.3548E+07         8                       ( 2, 1)
 0.3223E+07         1                       ( 1,31)
 0.2549E+07        13                       ( 1, 1)
 0.2212E+07        15                       ( 1, 1)
 0.1943E+07         9                       ( 1, 8)
 0.1078E+07        14                       ( 1, 1)
 0.8159E+06        10                       ( 1, 1)
 0.6469E+06        16                       ( 2, 1)
-0.1882E-09        11                       ( 5,10)
 0.4310E-09         6                       ( 5, 5)
 0.4193E-09         7                       ( 5, 5)
 0.4145E-09         5                       ( 5, 5)
 0.3164E-09        17                       ( 5, 5)
 0.2361E-09         8                       ( 5, 5)
 0.1279E-09         4                       ( 5, 5)
 0.1741E-10         3                       ( 5, 5)
-0.1665E-06        10                       ( 1, 1)
-0.3986E-05        16                       ( 1, 1)
-0.1782E-04        12                       ( 1, 1)
-0.9090E+03        15                       ( 4, 4)
-0.1931E+06         9                       ( 3, 3)
-0.2074E+07        13                       ( 1, 1)
-0.4033E+07         2                       ( 1, 1)
-0.1278E+08        11                       ( 1, 1)
 Les valeurs extrêmes de SIG COMP BORDAGE (z=0) sont:
 0.2413E+08        17                       ( 1,15)
 0.2213E+08        11                       ( 1,31)
 0.2194E+08         1                       ( 5,31)
 0.2192E+08         2                       ( 5, 1)
 0.2082E+08         3                       ( 5, 1)
 0.1844E+08         5                       ( 1, 2)
 0.1436E+08         6                       ( 1, 7)
 0.1364E+08         9                       ( 5, 1)
 0.1361E+08         8                       ( 5,31)
 0.1330E+08         7                       ( 2, 1)
 0.1319E+08        10                       ( 5,31)
 0.1290E+08        12                       ( 5, 1)
 0.1129E+08         4                       ( 5, 1)
 0.1084E+08        13                       ( 2, 1)
 0.7334E+07        15                       ( 5,10)
 0.6474E+07        16                       ( 5, 1)
 0.6471E+07        14                       ( 5, 1)
 
 Les valeurs extrêmes de Sy JAS Cadre sont:
 0.6079E+08        11                       ( 5,16)
 0.4779E+08         2                       ( 2,17)
 0.4304E+08         7                       ( 5,31)
 0.4296E+08        13                       ( 2,16)
 0.3876E+08         1                       ( 5, 1)
 0.3407E+08         8                       ( 5, 1)
 0.3127E+08         9                       ( 3,16)
 0.2610E+08        15                       ( 5,11)
 0.2219E+08         5                       ( 5, 1)
 0.1941E+08        17                       ( 5,31)
 0.1431E+08         6                       ( 2, 1)
 0.8387E+07        10                       ( 3,31)
 0.7973E+07        14                       ( 2,31)
 0.1828E+07        12                       ( 2,31)
 0.1252E+07        16                       ( 2,31)
-0.1814E+08         5                       ( 2, 2)
-0.1991E+08        17                       ( 5, 5)
-0.2390E+08         8                       ( 3, 3)
-0.2905E+08        16                       ( 5, 5)
-0.4103E+08        15                       ( 5, 5)
-0.4390E+08        14                       ( 2, 2)
-0.4596E+08         6                       ( 5, 5)
-0.5236E+08         7                       ( 5, 5)
-0.5254E+08        10                       ( 3, 3)
-0.5880E+08        12                       ( 2, 2)
-0.6205E+08         3                       ( 5, 5)
-0.6208E+08         4                       ( 5, 5)
-0.6529E+08         9                       ( 4, 4)
-0.7607E+08         2                       ( 2, 2)
-0.7725E+08         1                       ( 2, 2)
-0.7840E+08        13                       ( 2, 2)
-0.7887E+08        11                       ( 2, 2)
 Les valeurs extrêmes de Tau JAS Cadre sont:
 0.2986E+08         2                       ( 2, 1)
 0.2832E+08         1                       ( 2,31)
 0.2027E+08        11                       ( 2, 1)
 0.1993E+08         4                       ( 5, 1)
 0.1714E+08         3                       ( 2, 1)
 0.1642E+08         7                       ( 5, 1)
 0.1530E+08        13                       ( 2, 1)
 0.1337E+08        12                       ( 2, 1)
 0.1185E+08         9                       ( 4,31)
 0.1141E+08        15                       ( 5,31)
 0.1008E+08         6                       ( 5, 5)
 0.1001E+08        14                       ( 2, 1)
 0.9447E+07        10                       ( 3, 1)
 0.7112E+07        16                       ( 2, 1)
 0.5481E+07         8                       ( 5, 1)
 0.3591E+07         5                       ( 5,31)
 0.1732E+07        17                       ( 2, 1)
 0.2544E+05         7                       ( 1, 1)
 0.1029E+05        13                       ( 1, 1)
 0.9007E+04         4                       ( 1, 1)
 0.4441E+04        15                       ( 1, 1)
 0.4119E+04         3                       ( 1, 1)
 0.2805E+04        11                       ( 1, 1)
 0.2600E+04        17                       ( 1, 1)
 0.2434E+04         9                       ( 1, 1)
 0.5477E+03         5                       ( 1, 1)
 0.4889E+03         6                       ( 1, 1)
 0.4002E+03         2                       ( 1, 1)
 0.3602E+03         8                       ( 1, 1)
 0.3532E-05        12                       ( 5, 5)
 0.9726E-06        14                       ( 3, 3)
 0.5585E-06        16                       ( 1, 1)
 0.2158E-06         1                       ( 5, 5)
 0.7087E-08        10                       ( 1, 1)
 Les valeurs extrêmes de Sy JAB Cadre sont:
 0.1712E+08        11                       ( 5, 1)
 0.1240E+08        12                       ( 5, 1)
 0.9492E+07        13                       ( 2, 1)
 0.6384E+07         1                       ( 5,31)
 0.6315E+07         2                       ( 5, 1)
 0.5265E+07        14                       ( 2, 1)
 0.3910E+07         3                       ( 5, 1)
 0.3119E+07         4                       ( 5, 1)
 0.2893E+07         7                       ( 5, 1)
 0.2137E+07        15                       ( 5,31)
 0.1313E+07        16                       ( 2, 1)
 0.2459E+06         6                       ( 5,31)
-0.4990E+06         3                       ( 2, 2)
-0.8823E+06        14                       ( 2, 2)
-0.9875E+06        16                       ( 5, 5)
-0.2592E+07         4                       ( 4, 4)
-0.2973E+07        11                       ( 2, 2)
-0.3433E+07         1                       ( 2, 2)
-0.4256E+07        15                       ( 5, 5)
-0.4757E+07         2                       ( 2, 2)
-0.4926E+07        13                       ( 2, 2)
-0.6000E+07         8                       ( 5, 5)
-0.6512E+07        10                       ( 4, 4)
-0.7190E+07         9                       ( 4, 4)
-0.7271E+07         6                       ( 5, 5)
-0.7811E+07         7                       ( 5, 5)
-0.8146E+07        17                       ( 5, 5)
-0.9695E+07         5                       ( 5, 5)
 Les valeurs extrêmes de Tau JAB Cadre sont:
 0.4974E+08         2                       ( 2, 1)
 0.4721E+08         1                       ( 2,31)
 0.3258E+08         4                       ( 5, 1)
 0.3032E+08        11                       ( 2, 1)
 0.2869E+08         7                       ( 5, 1)
 0.2796E+08         3                       ( 2, 1)
 0.2351E+08        13                       ( 2, 1)
 0.2014E+08        12                       ( 2, 1)
 0.1941E+08         9                       ( 4,31)
 0.1731E+08        15                       ( 5,31)
 0.1546E+08        10                       ( 3, 1)
 0.1537E+08        14                       ( 2, 1)
 0.1376E+08         6                       ( 5, 1)
 0.1080E+08        16                       ( 2, 1)
 0.8426E+07         8                       ( 5, 1)
 0.4896E+07         5                       ( 5,31)
 0.2514E+07        17                       ( 2, 1)
 0.2544E+05         7                       ( 1, 1)
 0.1029E+05        13                       ( 1, 1)
 0.9007E+04         4                       ( 1, 1)
 0.4441E+04        15                       ( 1, 1)
 0.4119E+04         3                       ( 1, 1)
 0.2805E+04        11                       ( 1, 1)
 0.2600E+04        17                       ( 1, 1)
 0.2434E+04         9                       ( 1, 1)
 0.5477E+03         5                       ( 1, 1)
 0.4889E+03         6                       ( 1, 1)
 0.4002E+03         2                       ( 1, 1)
 0.3602E+03         8                       ( 1, 1)
 0.4214E-05        12                       ( 5, 5)
 0.1033E-05        14                       ( 1, 1)
 0.2678E-06         1                       ( 1, 1)
 0.1483E-06        16                       ( 5, 5)
 0.7087E-08        10                       ( 1, 1)
 Les valeurs extrêmes de SIGMA COMP JAS CADRE sont:
 0.9198E+08         2                       ( 2, 1)
 0.9151E+08         1                       ( 2,31)
 0.8633E+08        11                       ( 2, 1)
 0.8276E+08        13                       ( 2, 1)
 0.7103E+08         4                       ( 5, 1)
 0.6844E+08         9                       ( 4,31)
 0.6816E+08         3                       ( 5,31)
 0.6320E+08        12                       ( 2, 1)
 0.5959E+08         7                       ( 5, 1)
 0.5503E+08        10                       ( 3, 1)
 0.4916E+08         6                       ( 5,31)
 0.4720E+08        14                       ( 2, 1)
 0.4555E+08        15                       ( 5,31)
 0.3536E+08         8                       ( 5, 1)
 0.3129E+08        16                       ( 5, 1)
 0.2303E+08         5                       ( 5, 1)
 0.2010E+08        17                       ( 5, 1)
 Les valeurs extrêmes de SIGMA COMP JAB CADRE sont:
 0.8635E+08         2                       ( 2, 1)
 0.8198E+08         1                       ( 2,31)
 0.5651E+08         4                       ( 5, 1)
 0.5515E+08        11                       ( 2, 1)
 0.4996E+08         7                       ( 5,31)
 0.4856E+08         3                       ( 2, 1)
 0.4181E+08        13                       ( 2, 1)
 0.3621E+08        12                       ( 2, 1)
 0.3437E+08         9                       ( 4,31)
 0.3006E+08        15                       ( 5,31)
 0.2753E+08        10                       ( 3, 1)
 0.2713E+08        14                       ( 2, 1)
 0.2492E+08         6                       ( 5, 1)
 0.1876E+08        16                       ( 2, 1)
 0.1578E+08         8                       ( 5, 1)
 0.1286E+08         5                       ( 5, 1)
 0.8742E+07        17                       ( 5,31)
 Les valeurs extrêmes de SIGMA COMP SEM CADRE sont:
 0.8316E+08        11                       ( 2, 1)
 0.8244E+08        13                       ( 2, 1)
 0.8212E+08         1                       ( 2,31)
 0.8123E+08         2                       ( 2, 1)
 0.6855E+08         9                       ( 4,31)
 0.6512E+08         4                       ( 5, 1)
 0.6461E+08         3                       ( 5,31)
 0.6181E+08        12                       ( 2, 1)
 0.5566E+08         7                       ( 5, 1)
 0.5513E+08        10                       ( 3, 1)
 0.4776E+08         6                       ( 5,31)
 0.4622E+08        14                       ( 2, 1)
 0.4263E+08        15                       ( 5,31)
 0.3541E+08         8                       ( 5, 1)
 0.3011E+08        16                       ( 5, 1)
 0.2332E+08         5                       ( 5, 1)
 0.2217E+08        17                       ( 5,31)
 Les valeurs extrêmes de Sy supérieure épon sont:
 0.1511E+07        20                       ( 5,31)
-0.6468E+07        20                       ( 5, 5)
-0.1152E+08        19                       ( 5, 5)
-0.1546E+08        18                       ( 5, 5)
 Les valeurs extrêmes de Sy inférieur épon sont:
 0.1071E+07        19                       ( 2, 1)
 0.7375E+06        20                       ( 2, 1)
-0.5800E+07        20                       ( 4, 4)
-0.1088E+08        19                       ( 5, 5)
-0.1278E+08        18                       ( 5, 5)
 Les valeurs extrêmes de Tau sommet épon sont:
 0.1141E+00        19                       ( 1, 1)
 0.1111E+00        18                       ( 1, 1)
 0.2403E-01        20                       ( 1, 1)
 Les valeurs extrêmes de Tau axe neutre épon sont:
 0.7224E+06        19                       ( 5, 1)
 0.3369E+06        18                       ( 2, 1)
 0.3283E+06        20                       ( 5, 1)
 Les valeurs extrêmes de SIG COMP sup épon sont:
 0.1546E+08        18                       ( 5, 1)
 0.1152E+08        19                       ( 5, 1)
 0.6468E+07        20                       ( 5, 1)
 Les valeurs extrêmes de SIG COMP inf épon sont:
 0.1278E+08        18                       ( 5,31)
 0.1088E+08        19                       ( 5,31)
 0.5800E+07        20                       ( 4,31)
 Les valeurs extrêmes de SIG COMP axe n. épon sont:
 0.1014E+08        18                       ( 5, 1)
 0.6322E+07        19                       ( 5, 1)
 0.3071E+07        20                       ( 4, 1)
 
 Les valeurs extrêmes de SIGMA COMP JAS RAID sont:
 0.2179E+08        17                       ( 5, 1)
 0.2094E+08         1                       ( 5,31)
 0.2094E+08         2                       ( 5, 1)
 0.2068E+08         3                       ( 5, 1)
 0.1424E+08         9                       ( 2,17)
 0.1385E+08         8                       ( 5,31)
 0.1305E+08        10                       ( 2,31)
 0.1119E+08         4                       ( 5, 1)
 0.8328E+07         6                       ( 5,31)
 0.8077E+07         7                       ( 5, 1)
 0.7199E+07        11                       ( 5, 1)
 0.6973E+07         5                       ( 5, 1)
 0.6462E+07        15                       ( 2,14)
 0.5765E+07        16                       ( 5, 1)
 0.5141E+07        12                       ( 2,31)
 0.4608E+07        13                       ( 2,16)
 0.2446E+07        14                       ( 5,31)
 Les valeurs extrêmes de SIGMA COMP JAB RAID sont:
 0.2179E+08        17                       ( 5, 1)
 0.2171E+08         1                       ( 5,31)
 0.2171E+08         2                       ( 5, 1)
 0.2109E+08         3                       ( 5, 1)
 0.1380E+08         8                       ( 5,31)
 0.1375E+08         9                       ( 5, 1)
 0.1318E+08        10                       ( 5, 1)
 0.1111E+08         4                       ( 5, 1)
 0.8322E+07         6                       ( 5,31)
 0.8303E+07         7                       ( 5, 1)
 0.7013E+07        11                       ( 2, 5)
 0.6948E+07         5                       ( 5, 1)
 0.6421E+07        15                       ( 5, 6)
 0.6110E+07        16                       ( 5, 1)
 0.4255E+07        12                       ( 2,31)
 0.3254E+07        13                       ( 5, 1)
 0.2754E+07        14                       ( 4, 1)
 Les valeurs extrêmes de SIGMA COMP SEM RAID sont:
 0.2179E+08        17                       ( 5, 1)
 0.2085E+08         1                       ( 5,31)
 0.2085E+08         2                       ( 5, 1)
 0.2063E+08         3                       ( 5, 1)
 0.1435E+08         9                       ( 2,17)
 0.1385E+08         8                       ( 5,31)
 0.1308E+08        10                       ( 2,31)
 0.1120E+08         4                       ( 5, 1)
 0.8329E+07         6                       ( 5,31)
 0.8032E+07         7                       ( 5, 1)
 0.7248E+07        11                       ( 5, 1)
 0.6978E+07         5                       ( 5, 1)
 0.6547E+07        15                       ( 2,14)
 0.5696E+07        16                       ( 5, 1)
 0.5318E+07        12                       ( 2,31)
 0.5067E+07        13                       ( 2,16)
 0.2390E+07        14                       ( 5,31)


******************************
 *** CAS DE CHARGE Nø 2 ***
******************************

 Epaisseur minimale de bordé: Plastification et voilement
--------------------------------------------------------------
      SR1 = Ratio of Applied stress/Yield Stress (?<? 1.0)
      SR2 = Global Interaction Ratio: Applied Stress/Critical Stress (?<? 1.0)

      For Yielding (Global stresses(Sx,Sy) are combined with the stress induced by the stiff bending)
      For Buckling (Global stresses(Sx,Sy) are considered alone)

Panel <-- Panel Dimensions -->  Minimum Thickness <- Collapse Scenario & applied stress --->  YIELDING   BUCKLING  Elast.Crit.Stress
      L(long) B(trans) d(thick)  d(min)  d/d(min)   Mode  Section   Sx    Sy     Tau    Plat  (S/So <1) (S/Scr<1) Sx(cr) Sy(cr) T(cr)
         (m)     (m)    (mm)      (mm)   (> 1 ??)           Y/Yo   N/mm2  N/mm2  N/mm2  (m)   Von-Mises Interact  N/mm2  N/mm2  N/mm2
                                                                                                SR1     Form(SR2)

  1    2.000   0.500    16.02     5.62    2.85   Yielding   0.00    12.6   -3.8    0.0   1.94  0.247      0.071   260.2   73.4  364.3
  2    2.000   0.500    16.02     5.84    2.74   Yielding   0.50    11.9   -6.0    0.0   1.94  0.265      0.113   260.2   73.4  364.3
  3    2.000   0.500    16.91     5.42    3.12   Yielding   0.00    12.8   -1.6    0.0   1.95  0.217      0.027   289.8   81.8  405.7
  4    2.000   0.500    16.91     2.92    5.80   Buckling   1.00     5.5   -1.8    0.0   0.00  0.000      0.030   289.8   81.8  405.7
  5    2.000   0.500     7.96     6.01    1.32   Buckling   0.00     3.6   -7.5    0.0   0.00  0.000      0.570    64.2   18.1   89.9
  6    2.000   0.500     7.96     4.27    1.86   Buckling   0.00    -0.5   -5.2    0.0   0.00  0.000      0.394    64.2   18.1   89.9
  7    2.000   0.500     8.19     4.34    1.89   Buckling   1.00    -3.0   -4.8    0.0   0.03  0.060      0.255    67.9   19.2   95.1
  8    2.000   0.500    11.79     4.10    2.87   Buckling   0.00    -2.9   -4.2    0.0   0.00  0.000      0.107   140.8   39.7  197.1
  9    2.000   0.500    27.90     3.09    9.03   Buckling   0.50    -7.5   -1.1    0.0   0.45  0.093      0.013   789.2  222.7 1104.8
 10    2.000   0.500    27.90     3.06    9.13   Buckling   0.00    -6.9    0.7    0.0   0.45  0.098      0.012   789.2  222.7 1104.8
 11    2.000   0.500     5.00     3.78    1.32   Buckling   0.50     5.5   -3.0    0.0   0.52  0.416      0.573    25.3    7.2   35.5
 12    2.000   0.500     5.00     2.86    1.75   Yielding   0.00    19.6   14.4    0.0   0.52  0.444      0.000    25.3    7.2   35.5
 13    2.000   0.500     5.00     4.08    1.23   Buckling   0.50    -0.6   -4.7    0.0   0.37  0.279      0.659    25.3    7.2   35.5
 14    2.000   0.500     5.00     2.32    2.15   Yielding   1.00     6.5   -0.4    0.0   0.37  0.237      0.074    25.3    7.2   35.5
 15    2.000   0.500     9.05     3.18    2.85   Buckling   0.50    -2.5   -2.4    0.0   0.38  0.099      0.103    82.9   23.4  116.1
 16    2.000   0.500     9.05     2.35    3.84   Yielding   1.00    -5.3   -0.4    0.0   0.38  0.096      0.018    82.9   23.4  116.1
 17    2.000   0.500    10.16     6.36    1.60   Buckling   1.00     4.1   -8.4    0.0   0.00  0.000      0.392   104.6   29.5  146.4

 Resist Ultime panneau (PAIK)
----------------------------------------
NEL,  Sig Ult (N/mm2) > ? > Contrainte moyenne axiale en compression (Nx)
  1   70.80089                     0.00000
  2   70.80089                     0.00000
  3   71.18839                     0.00000
  4   71.18839                     0.00000
  5   37.52174                     0.00000
  6   37.52174                     0.42482
  7   43.26925                     2.76935
  8   76.26211                     6.52443
  9   90.23256                     7.28751
 10   90.23256                     7.22146
 11   30.55666                     0.00000
 12   30.55666                     0.00000
 13   30.29341                     0.18439
 14   30.29341                     0.00000
 15   44.12365                     2.30574
 16   44.12365                     2.09886
 17   52.50498                     0.00000
 18    0.00000                     0.00000
 19    0.00000                     0.00000
 20    0.00000                     0.00000

RECAPITULATIFS DE VALEURS EXTREMES CALCULEES (Deplac. et Contraintes de Comparaison
----------------------------------------------------------------------
(PAR ORDRE DECROISSANT ; unités = m et N/m2)
 Valeurs         Panneaux              Positions (X,Y)

 Les valeurs extrêmes de V sont:
 0.3601E-03         3                       ( 2, 1)
 0.3498E-03        17                       ( 2, 1)
 0.7501E-04        13                       ( 2, 8)
 0.7259E-05        11                       ( 2, 8)
 0.6409E-05        14                       ( 2,20)
 0.1151E-06        16                       ( 2,27)
-0.3218E-04        16                       ( 5, 1)
-0.3843E-04         7                       ( 2, 1)
-0.4241E-04        14                       ( 5, 1)
-0.5847E-04        15                       ( 5,24)
-0.5902E-04         3                       ( 5,31)
-0.6294E-04        10                       ( 4, 1)
-0.1089E-03        13                       ( 5,25)
-0.1202E-03         1                       ( 3,31)
-0.1437E-03        12                       ( 5, 1)
-0.2044E-03         9                       ( 5, 1)
-0.2567E-03        11                       ( 5, 1)
-0.2587E-03        17                       ( 5,31)
-0.4634E-03         2                       ( 2,31)
-0.1351E-02         4                       ( 5,31)
-0.1646E-02         5                       ( 5,31)
-0.1692E-02         6                       ( 5,20)
-0.2255E-02        18                       ( 5,31)
-0.2899E-02         8                       ( 5,16)
-0.2901E-02        19                       ( 5,31)
-0.3361E-02        20                       ( 5,31)
 Les valeurs extrêmes de U sont:
 0.1384E-02        10                       ( 1, 1)
 0.1384E-02         9                       ( 1,31)
 0.1306E-02         8                       ( 1,31)
 0.4169E-03        16                       ( 1,16)
 0.4103E-03        15                       ( 1,31)
 0.2936E-03         6                       ( 1,31)
 0.2936E-03         7                       ( 1, 1)
-0.1000E+31         0                       ( 0, 0)
-0.1000E+31         0                       ( 0, 0)
-0.1000E+31         0                       ( 0, 0)
-0.1449E-03        14                       ( 2, 1)
-0.1756E-03         6                       ( 2, 1)
-0.1930E-03        13                       ( 1,16)
-0.1205E-02         5                       ( 1, 1)
-0.1351E-02        12                       ( 1, 1)
-0.1351E-02        11                       ( 1,31)
-0.1453E-02         3                       ( 1,31)
-0.1453E-02         4                       ( 1, 1)
-0.1604E-02        17                       ( 1, 5)
-0.1628E-02         2                       ( 1,11)
-0.1663E-02         1                       ( 1, 1)
-0.1000E+31         0                       ( 0, 0)
-0.1000E+31         0                       ( 0, 0)
-0.1000E+31         0                       ( 0, 0)
 Les valeurs extrêmes de W sont:
 0.1862E-02         3                       ( 5,28)
 0.1286E-02        18                       ( 5, 9)
 0.1242E-02         4                       ( 5, 1)
 0.1070E-02        12                       ( 2,24)
 0.3675E-03        19                       ( 2,10)
 0.3433E-03         8                       ( 2,25)
 0.2567E-03         5                       ( 5, 1)
 0.2385E-03         6                       ( 5,21)
 0.1437E-03        17                       ( 5,31)
 0.1228E-03        20                       ( 5, 6)
-0.1863E-04        19                       ( 5,27)
-0.4005E-04         6                       ( 2, 8)
-0.2587E-03        12                       ( 5, 1)
-0.2945E-03        20                       ( 3,22)
-0.2983E-03        18                       ( 2,27)
-0.3599E-03         8                       ( 5, 9)
-0.5516E-03         5                       ( 5,11)
-0.7313E-03         1                       ( 2, 1)
-0.1015E-02         3                       ( 2, 1)
-0.1146E-02        17                       ( 4,19)
-0.2293E-02        14                       ( 5,31)
-0.2699E-02         2                       ( 2,18)
-0.2865E-02         7                       ( 5,31)
-0.2901E-02        16                       ( 5, 1)
-0.3960E-02        10                       ( 5,31)
-0.4709E-02        15                       ( 5,15)
-0.7253E-02         9                       ( 5,17)
-0.8449E-02        13                       ( 5,17)
-0.9776E-02        11                       ( 5,16)
 
 Les valeurs extrêmes de Sx BORDAGE (z=0) sont:
 0.1305E+08        11                       ( 2, 1)
 0.1195E+08        12                       ( 2, 1)
 0.1048E+08         1                       ( 2,31)
 0.1045E+08         2                       ( 2, 1)
 0.9684E+07         4                       ( 2, 1)
 0.9650E+07         3                       ( 2,31)
 0.6819E+07        17                       ( 2,11)
 0.5384E+07        13                       ( 5, 1)
 0.5117E+07         5                       ( 2, 1)
 0.3103E+07        14                       ( 5, 1)
 0.3326E+06         7                       ( 4, 1)
-0.7142E+06        13                       ( 2, 2)
-0.1609E+07         6                       ( 2, 2)
-0.2908E+07        16                       ( 2, 2)
-0.2923E+07        15                       ( 2, 2)
-0.3034E+07         7                       ( 5, 5)
-0.6755E+07         8                       ( 2, 2)
-0.8417E+07        10                       ( 2, 2)
-0.8621E+07         9                       ( 2, 2)
 Les valeurs extrêmes de Sy BORDAGE (z=0) sont:
 0.1887E+08        11                       ( 2, 1)
 0.1445E+08        12                       ( 5, 1)
 0.1269E+08        13                       ( 2, 1)
 0.6800E+07        14                       ( 5, 1)
 0.4552E+07         1                       ( 2,31)
 0.4536E+07         7                       ( 5, 1)
 0.4463E+07         2                       ( 2, 1)
 0.3018E+07        15                       ( 5,31)
 0.2815E+07         6                       ( 5,31)
 0.2612E+07         4                       ( 5, 1)
 0.2396E+07        16                       ( 5, 1)
 0.2379E+07         3                       ( 5,31)
 0.1499E+07         8                       ( 2,31)
 0.1316E+07         9                       ( 2, 1)
 0.8549E+06        10                       ( 4, 1)
 0.7909E+06         5                       ( 2,31)
-0.9025E+06        14                       ( 2, 2)
-0.1006E+07        16                       ( 2, 2)
-0.1607E+07         9                       ( 2, 2)
-0.1641E+07        10                       ( 2, 2)
-0.1940E+07         4                       ( 4, 4)
-0.2255E+07         3                       ( 2, 2)
-0.2437E+07        15                       ( 5, 5)
-0.4011E+07         1                       ( 3, 3)
-0.4234E+07         8                       ( 5, 5)
-0.4468E+07        11                       ( 2, 2)
-0.4782E+07         7                       ( 5, 5)
-0.5189E+07         6                       ( 5, 5)
-0.5631E+07        13                       ( 2, 2)
-0.6665E+07         2                       ( 2, 2)
-0.7536E+07         5                       ( 4, 4)
-0.8409E+07        17                       ( 5, 5)
 Les valeurs extrêmes de Txy BORDAGE (z=0) sont:
 0.4310E+07        17                       ( 1,11)
 0.3170E+07         3                       ( 1,17)
 0.2638E+07        12                       ( 1, 1)
 0.2234E+07        11                       ( 1, 1)
 0.2056E+07         4                       ( 1, 1)
 0.1605E+07        13                       ( 1, 1)
 0.1354E+07         5                       ( 2, 1)
 0.1262E+07        15                       ( 1, 1)
 0.1018E+07         2                       ( 2,26)
 0.6434E+06        14                       ( 1, 1)
 0.6369E+06         6                       ( 3, 5)
 0.4474E+06         7                       ( 3, 1)
 0.3105E+06         1                       ( 2,23)
 0.2916E+06        16                       ( 2, 1)
 0.1914E+06         8                       ( 4,16)
 0.1199E+06        10                       ( 3, 1)
 0.8208E+05         9                       ( 3,24)
-0.1392E-11        14                       ( 5, 5)
-0.6468E-11         1                       ( 5, 5)
-0.2410E-10         5                       ( 5, 5)
-0.3622E-05        16                       ( 1, 1)
-0.3048E+05        12                       ( 4, 4)
-0.3640E+05        17                       ( 4, 4)
-0.6784E+05        15                       ( 1, 1)
-0.1358E+06         4                       ( 4, 4)
-0.2481E+06         3                       ( 4, 4)
-0.6721E+06        10                       ( 1, 1)
-0.7215E+06         6                       ( 1, 1)
-0.9747E+06         9                       ( 1, 1)
-0.1135E+07         7                       ( 1, 1)
-0.1504E+07        13                       ( 1, 1)
-0.1980E+07         2                       ( 1, 1)
-0.2093E+07         8                       ( 1, 1)
-0.5056E+07        11                       ( 1, 1)
 Les valeurs extrêmes de SIG COMP BORDAGE (z=0) sont:
 0.1676E+08        11                       ( 2, 1)
 0.1328E+08        12                       ( 5, 1)
 0.1296E+08        17                       ( 2, 7)
 0.1206E+08         2                       ( 2,17)
 0.1117E+08        13                       ( 2, 1)
 0.1080E+08         1                       ( 2, 1)
 0.9843E+07         5                       ( 3, 1)
 0.8795E+07         4                       ( 2, 1)
 0.8793E+07         3                       ( 2,31)
 0.8151E+07         9                       ( 2,31)
 0.8129E+07        10                       ( 2, 1)
 0.7715E+07         8                       ( 2,31)
 0.5985E+07        14                       ( 2, 1)
 0.4979E+07         6                       ( 5, 1)
 0.4422E+07         7                       ( 5, 1)
 0.3720E+07        15                       ( 2,31)
 0.3444E+07        16                       ( 2, 1)
 
 Les valeurs extrêmes de Sy JAS Cadre sont:
 0.5583E+08        11                       ( 2,16)
 0.4300E+08        13                       ( 2,17)
 0.3894E+08         9                       ( 2,16)
 0.3604E+08         8                       ( 5, 1)
 0.3194E+08         2                       ( 5,18)
 0.2406E+08         7                       ( 5,31)
 0.1970E+08        10                       ( 2,31)
 0.1954E+08         5                       ( 2, 1)
 0.1912E+08        15                       ( 5,14)
 0.1676E+08         6                       ( 2, 1)
 0.1283E+08        17                       ( 2,31)
 0.1203E+08         1                       ( 2, 1)
 0.8842E+07        14                       ( 5,31)
 0.6565E+07        16                       ( 2,31)
 0.2542E+07        12                       ( 5,31)
-0.1388E+08        17                       ( 4, 4)
-0.1721E+08         5                       ( 2, 2)
-0.1928E+08        16                       ( 5, 5)
-0.2525E+08        15                       ( 5, 5)
-0.2724E+08         8                       ( 2, 2)
-0.3095E+08         6                       ( 5, 5)
-0.3534E+08         7                       ( 5, 5)
-0.4335E+08        14                       ( 2, 2)
-0.4898E+08         3                       ( 5, 5)
-0.4901E+08         4                       ( 5, 5)
-0.5140E+08        10                       ( 2, 2)
-0.5783E+08        12                       ( 2, 2)
-0.5937E+08         2                       ( 2, 2)
-0.6026E+08         1                       ( 2, 2)
-0.6802E+08         9                       ( 2, 2)
-0.8210E+08        13                       ( 2, 2)
-0.8783E+08        11                       ( 2, 2)
 Les valeurs extrêmes de Tau JAS Cadre sont:
 0.2062E+08         2                       ( 2, 1)
 0.2053E+08        11                       ( 2, 1)
 0.1837E+08         1                       ( 2,31)
 0.1554E+08        13                       ( 2, 1)
 0.1378E+08         9                       ( 2, 1)
 0.1330E+08        12                       ( 2, 1)
 0.1161E+08         4                       ( 4, 1)
 0.1135E+08        10                       ( 2, 1)
 0.1025E+08         7                       ( 5, 1)
 0.1001E+08        14                       ( 2, 1)
 0.9302E+07        15                       ( 5,31)
 0.8192E+07         6                       ( 5,31)
 0.7348E+07         3                       ( 5,30)
 0.7180E+07        16                       ( 2, 1)
 0.5890E+07         8                       ( 5,31)
 0.3306E+07         5                       ( 2, 1)
 0.1352E+07        17                       ( 2,31)
 0.2008E+05        11                       ( 1, 1)
 0.1769E+05        13                       ( 1, 1)
 0.1738E+05         4                       ( 1, 1)
 0.8270E+04         7                       ( 1, 1)
 0.5886E+04         2                       ( 1, 1)
 0.5216E+04         9                       ( 1, 1)
 0.1294E+04         3                       ( 1, 1)
 0.1141E+04        17                       ( 1, 1)
 0.6660E+03         5                       ( 1, 1)
 0.5559E+03         6                       ( 1, 1)
 0.1699E+03        15                       ( 1, 1)
 0.2502E+02         8                       ( 1, 1)
 0.3582E-05        12                       ( 5, 5)
 0.1123E-05        14                       ( 3, 3)
 0.6813E-06        16                       ( 1, 1)
 0.2414E-06         1                       ( 1, 1)
 0.9120E-08        10                       ( 1, 1)
 Les valeurs extrêmes de Sy JAB Cadre sont:
 0.1378E+08        11                       ( 5, 1)
 0.1021E+08        13                       ( 2, 1)
 0.9954E+07        12                       ( 5, 1)
 0.5365E+07        14                       ( 2, 1)
 0.3901E+07         7                       ( 5, 1)
 0.3849E+07         9                       ( 2,16)
 0.3162E+07         8                       ( 2,31)
 0.2963E+07        15                       ( 5,31)
 0.2793E+07        10                       ( 5,31)
 0.2496E+07        16                       ( 5, 1)
 0.2477E+07         6                       ( 5,31)
 0.3646E+06         5                       ( 2,31)
-0.8252E+06        14                       ( 2, 2)
-0.9341E+06        10                       ( 2, 2)
-0.1347E+07        15                       ( 5, 5)
-0.1350E+07         9                       ( 2, 2)
-0.2574E+07         8                       ( 5, 5)
-0.3392E+07         7                       ( 5, 5)
-0.3793E+07         4                       ( 4, 4)
-0.4634E+07         3                       ( 5, 5)
-0.4773E+07         6                       ( 5, 5)
-0.4882E+07        13                       ( 2, 2)
-0.5712E+07        11                       ( 2, 2)
-0.6028E+07         1                       ( 3, 3)
-0.8166E+07         2                       ( 2, 2)
-0.8328E+07         5                       ( 5, 5)
-0.1057E+08        17                       ( 2, 2)
 Les valeurs extrêmes de Tau JAB Cadre sont:
 0.3437E+08         2                       ( 2, 1)
 0.3073E+08        11                       ( 2, 1)
 0.3069E+08         1                       ( 2,31)
 0.2386E+08        13                       ( 2, 1)
 0.2255E+08         9                       ( 2, 1)
 0.1993E+08        12                       ( 2, 1)
 0.1915E+08         4                       ( 4, 1)
 0.1855E+08        10                       ( 2, 1)
 0.1782E+08         7                       ( 5, 1)
 0.1537E+08        14                       ( 2, 1)
 0.1411E+08        15                       ( 5,31)
 0.1207E+08         3                       ( 5,31)
 0.1109E+08         6                       ( 5,31)
 0.1090E+08        16                       ( 2, 1)
 0.8904E+07         8                       ( 5,31)
 0.4430E+07         5                       ( 2, 1)
 0.2055E+07        17                       ( 2,31)
 0.2008E+05        11                       ( 1, 1)
 0.1769E+05        13                       ( 1, 1)
 0.1738E+05         4                       ( 1, 1)
 0.8270E+04         7                       ( 1, 1)
 0.5886E+04         2                       ( 1, 1)
 0.5216E+04         9                       ( 1, 1)
 0.1294E+04         3                       ( 1, 1)
 0.1141E+04        17                       ( 1, 1)
 0.6660E+03         5                       ( 1, 1)
 0.5559E+03         6                       ( 1, 1)
 0.1699E+03        15                       ( 1, 1)
 0.2502E+02         8                       ( 1, 1)
 0.4331E-05        12                       ( 5, 5)
 0.1255E-05        14                       ( 1, 1)
 0.3481E-06        16                       ( 5, 5)
 0.2414E-06         1                       ( 1, 1)
 0.9120E-08        10                       ( 1, 1)
 Les valeurs extrêmes de SIGMA COMP JAS CADRE sont:
 0.9476E+08        11                       ( 2, 1)
 0.8640E+08        13                       ( 2, 1)
 0.7208E+08         9                       ( 2, 1)
 0.6929E+08         2                       ( 2, 1)
 0.6815E+08         1                       ( 2,31)
 0.6224E+08        12                       ( 2, 1)
 0.5503E+08        10                       ( 2, 1)
 0.5280E+08         4                       ( 5, 1)
 0.5060E+08         3                       ( 5,31)
 0.4669E+08        14                       ( 2, 1)
 0.3955E+08         7                       ( 5, 1)
 0.3735E+08         8                       ( 5, 1)
 0.3405E+08         6                       ( 5,31)
 0.2996E+08        15                       ( 5,31)
 0.2254E+08        16                       ( 5, 1)
 0.2036E+08         5                       ( 2, 1)
 0.1398E+08        17                       ( 4, 1)
 Les valeurs extrêmes de SIGMA COMP JAB CADRE sont:
 0.5954E+08         2                       ( 2, 1)
 0.5492E+08        11                       ( 2, 1)
 0.5316E+08         1                       ( 2,31)
 0.4257E+08        13                       ( 2, 1)
 0.3909E+08         9                       ( 2, 1)
 0.3557E+08        12                       ( 2, 1)
 0.3335E+08         4                       ( 4,31)
 0.3215E+08        10                       ( 2, 1)
 0.3112E+08         7                       ( 5, 1)
 0.2715E+08        14                       ( 2, 1)
 0.2461E+08        15                       ( 5,31)
 0.2094E+08         3                       ( 5,30)
 0.1980E+08         6                       ( 5, 1)
 0.1903E+08        16                       ( 2, 1)
 0.1571E+08         8                       ( 5,31)
 0.1121E+08         5                       ( 5, 1)
 0.1063E+08        17                       ( 2, 1)
 Les valeurs extrêmes de SIGMA COMP SEM CADRE sont:
 0.9231E+08        11                       ( 2, 1)
 0.8632E+08        13                       ( 2, 1)
 0.7179E+08         9                       ( 2, 1)
 0.6331E+08         1                       ( 2,31)
 0.6278E+08         2                       ( 2, 1)
 0.6076E+08        12                       ( 2, 1)
 0.5429E+08        10                       ( 2, 1)
 0.5078E+08         4                       ( 5, 1)
 0.5040E+08         3                       ( 5,31)
 0.4564E+08        14                       ( 2, 1)
 0.3749E+08         7                       ( 5, 1)
 0.3734E+08         8                       ( 5, 1)
 0.3231E+08         6                       ( 5,31)
 0.2642E+08        15                       ( 5,31)
 0.2048E+08         5                       ( 2, 1)
 0.2016E+08        16                       ( 5, 1)
 0.1491E+08        17                       ( 2,31)
 Les valeurs extrêmes de Sy supérieure épon sont:
-0.3843E+07        20                       ( 4, 4)
-0.8434E+07        19                       ( 5, 5)
-0.1168E+08        18                       ( 5, 5)
 Les valeurs extrêmes de Sy inférieur épon sont:
 0.8382E+06        19                       ( 2, 1)
-0.4251E+07        20                       ( 2, 2)
-0.7473E+07        19                       ( 5, 5)
-0.1055E+08        18                       ( 5, 5)
 Les valeurs extrêmes de Tau sommet épon sont:
 0.1116E+00        19                       ( 1, 1)
 0.9978E-01        18                       ( 1, 1)
 0.2719E-01        20                       ( 1,31)
 Les valeurs extrêmes de Tau axe neutre épon sont:
 0.4528E+06        19                       ( 5, 1)
 0.3101E+06        18                       ( 2, 1)
 0.1617E+06        20                       ( 5, 1)
 Les valeurs extrêmes de SIG COMP sup épon sont:
 0.1168E+08        18                       ( 5, 1)
 0.8434E+07        19                       ( 5, 1)
 0.3843E+07        20                       ( 4, 1)
 Les valeurs extrêmes de SIG COMP inf épon sont:
 0.1055E+08        18                       ( 5,31)
 0.7473E+07        19                       ( 5,31)
 0.4251E+07        20                       ( 2,31)
 Les valeurs extrêmes de SIG COMP axe n. épon sont:
 0.7314E+07        18                       ( 5, 1)
 0.4762E+07        19                       ( 4, 1)
 0.2577E+07        20                       ( 2,31)
 
 Les valeurs extrêmes de SIGMA COMP JAS RAID sont:
 0.1116E+08         2                       ( 2,15)
 0.1031E+08        11                       ( 2,17)
 0.1028E+08         1                       ( 2, 1)
 0.9746E+07        17                       ( 2,12)
 0.8569E+07         3                       ( 2,31)
 0.8533E+07         4                       ( 2, 1)
 0.7599E+07        12                       ( 2, 1)
 0.7410E+07         8                       ( 2,31)
 0.7214E+07        10                       ( 3,31)
 0.7038E+07         9                       ( 4,18)
 0.6809E+07         5                       ( 2, 1)
 0.3991E+07        13                       ( 2,17)
 0.2204E+07         6                       ( 2,31)
 0.2087E+07         7                       ( 2, 1)
 0.2084E+07        16                       ( 2, 6)
 0.2050E+07        15                       ( 2,31)
 0.1121E+07        14                       ( 5,31)
 Les valeurs extrêmes de SIGMA COMP JAB RAID sont:
 0.9843E+07         1                       ( 2, 1)
 0.9790E+07         2                       ( 2,13)
 0.9462E+07        17                       ( 2,10)
 0.8887E+07         3                       ( 2,31)
 0.8884E+07         4                       ( 2, 1)
 0.7939E+07        10                       ( 2, 1)
 0.7939E+07         9                       ( 2,31)
 0.7605E+07        11                       ( 2,31)
 0.7605E+07        12                       ( 2, 1)
 0.7257E+07         8                       ( 2,31)
 0.6819E+07         5                       ( 2, 1)
 0.2575E+07        16                       ( 2, 9)
 0.2536E+07        15                       ( 2,31)
 0.2190E+07         6                       ( 2,31)
 0.2182E+07         7                       ( 2, 1)
 0.1380E+07        13                       ( 2,17)
 0.1018E+07        14                       ( 4, 1)
 Les valeurs extrêmes de SIGMA COMP SEM RAID sont:
 0.1133E+08         2                       ( 2,15)
 0.1091E+08        11                       ( 2,17)
 0.1033E+08         1                       ( 2, 1)
 0.9803E+07        17                       ( 2,12)
 0.8530E+07         3                       ( 2,31)
 0.8491E+07         4                       ( 2, 1)
 0.7598E+07        12                       ( 2, 1)
 0.7420E+07         8                       ( 2,31)
 0.7230E+07        10                       ( 3,31)
 0.7065E+07         9                       ( 4,18)
 0.6807E+07         5                       ( 2, 1)
 0.4518E+07        13                       ( 2,17)
 0.2207E+07         6                       ( 2,31)
 0.2068E+07         7                       ( 2, 1)
 0.1987E+07        16                       ( 2, 6)
 0.1953E+07        15                       ( 2,31)
 0.1152E+07        14                       ( 5,31)
